70
1 0 9
2 0 18
2 1 42
3 0 57
3 1 57
3 2 52
4 0 44
4 1 48
4 2 23
4 3 8
5 0 47
5 1 10
5 2 16
5 3 37
5 4 47
6 0 58
6 1 7
6 2 11
6 3 31
6 4 19
6 5 54
7 0 32
7 1 46
7 2 11
7 3 37
7 4 48
7 5 18
7 6 27
8 0 1
8 1 21
8 2 49
8 3 23
8 4 21
8 5 25
8 6 8
8 7 36
9 0 46
9 1 15
9 2 2
9 3 49
9 4 55
9 5 40
9 6 46
9 7 7
9 8 48
10 0 25
10 1 6
10 2 31
10 3 54
10 4 47
10 5 19
10 6 56
10 7 10
10 8 3
10 9 40
11 0 2
11 1 23
11 2 59
11 3 7
11 4 20
11 5 58
11 6 29
11 7 18
11 8 49
11 9 20
11 10 56
12 0 14
12 1 39
12 2 13
12 3 55
12 4 7
12 5 53
12 6 39
12 7 20
12 8 4
12 9 25
12 10 34
12 11 12
13 0 59
13 1 8
13 2 7
13 3 33
13 4 37
13 5 32
13 6 14
13 7 12
13 8 34
13 9 51
13 10 58
13 11 21
13 12 55
14 0 46
14 1 44
14 2 17
14 3 39
14 4 60
14 5 22
14 6 43
14 7 2
14 8 24
14 9 49
14 10 20
14 11 35
14 12 37
14 13 32
15 0 44
15 1 23
15 2 4
15 3 17
15 4 53
15 5 55
15 6 1
15 7 45
15 8 36
15 9 29
15 10 52
15 11 59
15 12 48
15 13 2
15 14 9
16 0 60
16 1 34
16 2 58
16 3 39
16 4 38
16 5 6
16 6 9
16 7 40
16 8 38
16 9 15
16 10 15
16 11 27
16 12 49
16 13 16
16 14 12
16 15 11
17 0 22
17 1 43
17 2 18
17 3 13
17 4 52
17 5 48
17 6 11
17 7 16
17 8 35
17 9 51
17 10 1
17 11 45
17 12 1
17 13 8
17 14 15
17 15 41
17 16 56
18 0 42
18 1 54
18 2 44
18 3 11
18 4 49
18 5 22
18 6 12
18 7 2
18 8 60
18 9 9
18 10 6
18 11 7
18 12 9
18 13 48
18 14 47
18 15 43
18 16 40
18 17 9
19 0 34
19 1 24
19 2 4
19 3 52
19 4 22
19 5 12
19 6 27
19 7 22
19 8 18
19 9 32
19 10 24
19 11 53
19 12 52
19 13 55
19 14 38
19 15 32
19 16 58
19 17 57
19 18 20
20 0 9
20 1 58
20 2 14
20 3 53
20 4 29
20 5 44
20 6 11
20 7 30
20 8 6
20 9 59
20 10 48
20 11 2
20 12 1
20 13 43
20 14 56
20 15 58
20 16 46
20 17 30
20 18 46
20 19 9
21 0 35
21 1 32
21 2 13
21 3 3
21 4 1
21 5 18
21 6 42
21 7 28
21 8 52
21 9 1
21 10 30
21 11 59
21 12 25
21 13 53
21 14 27
21 15 36
21 16 19
21 17 15
21 18 57
21 19 20
21 20 46
22 0 10
22 1 24
22 2 42
22 3 33
22 4 41
22 5 30
22 6 25
22 7 12
22 8 2
22 9 1
22 10 45
22 11 33
22 12 35
22 13 11
22 14 16
22 15 3
22 16 1
22 17 37
22 18 56
22 19 58
22 20 34
22 21 18
23 0 50
23 1 10
23 2 37
23 3 24
23 4 7
23 5 5
23 6 26
23 7 41
23 8 35
23 9 11
23 10 55
23 11 50
23 12 20
23 13 54
23 14 12
23 15 58
23 16 17
23 17 3
23 18 55
23 19 10
23 20 27
23 21 53
23 22 14
24 0 54
24 1 20
24 2 35
24 3 60
24 4 23
24 5 47
24 6 48
24 7 46
24 8 35
24 9 13
24 10 20
24 11 11
24 12 14
24 13 60
24 14 19
24 15 25
24 16 58
24 17 30
24 18 24
24 19 27
24 20 45
24 21 52
24 22 39
24 23 11
25 0 57
25 1 55
25 2 32
25 3 1
25 4 46
25 5 17
25 6 50
25 7 17
25 8 59
25 9 2
25 10 22
25 11 33
25 12 5
25 13 12
25 14 15
25 15 37
25 16 20
25 17 1
25 18 43
25 19 13
25 20 25
25 21 52
25 22 43
25 23 2
25 24 31
26 0 60
26 1 3
26 2 60
26 3 5
26 4 53
26 5 41
26 6 7
26 7 42
26 8 25
26 9 14
26 10 37
26 11 39
26 12 34
26 13 13
26 14 59
26 15 16
26 16 4
26 17 10
26 18 39
26 19 1
26 20 15
26 21 58
26 22 28
26 23 4
26 24 12
26 25 51
27 0 27
27 1 36
27 2 47
27 3 54
27 4 14
27 5 9
27 6 10
27 7 17
27 8 13
27 9 1
27 10 58
27 11 6
27 12 27
27 13 4
27 14 8
27 15 54
27 16 45
27 17 49
27 18 13
27 19 15
27 20 21
27 21 33
27 22 29
27 23 42
27 24 28
27 25 40
27 26 12
28 0 15
28 1 15
28 2 54
28 3 8
28 4 57
28 5 6
28 6 37
28 7 40
28 8 27
28 9 31
28 10 43
28 11 36
28 12 37
28 13 35
28 14 49
28 15 12
28 16 10
28 17 3
28 18 21
28 19 5
28 20 26
28 21 39
28 22 22
28 23 15
28 24 34
28 25 42
28 26 37
28 27 2
29 0 32
29 1 42
29 2 34
29 3 1
29 4 59
29 5 3
29 6 18
29 7 59
29 8 48
29 9 16
29 10 17
29 11 42
29 12 45
29 13 19
29 14 54
29 15 50
29 16 53
29 17 49
29 18 43
29 19 31
29 20 8
29 21 34
29 22 13
29 23 15
29 24 43
29 25 8
29 26 20
29 27 6
29 28 60
30 0 57
30 1 7
30 2 38
30 3 57
30 4 56
30 5 12
30 6 41
30 7 35
30 8 27
30 9 7
30 10 13
30 11 40
30 12 21
30 13 24
30 14 42
30 15 53
30 16 26
30 17 14
30 18 44
30 19 4
30 20 20
30 21 57
30 22 6
30 23 15
30 24 48
30 25 37
30 26 6
30 27 37
30 28 1
30 29 44
31 0 6
31 1 38
31 2 6
31 3 24
31 4 42
31 5 56
31 6 12
31 7 56
31 8 42
31 9 49
31 10 53
31 11 23
31 12 55
31 13 11
31 14 26
31 15 36
31 16 35
31 17 32
31 18 22
31 19 56
31 20 56
31 21 20
31 22 32
31 23 31
31 24 49
31 25 35
31 26 14
31 27 41
31 28 56
31 29 48
31 30 33
32 0 17
32 1 50
32 2 32
32 3 33
32 4 32
32 5 40
32 6 60
32 7 11
32 8 55
32 9 24
32 10 46
32 11 9
32 12 19
32 13 11
32 14 18
32 15 44
32 16 15
32 17 45
32 18 59
32 19 51
32 20 51
32 21 10
32 22 49
32 23 18
32 24 8
32 25 36
32 26 56
32 27 18
32 28 40
32 29 19
32 30 41
32 31 45
33 0 30
33 1 36
33 2 49
33 3 39
33 4 8
33 5 14
33 6 10
33 7 49
33 8 57
33 9 27
33 10 44
33 11 43
33 12 10
33 13 38
33 14 9
33 15 58
33 16 23
33 17 27
33 18 53
33 19 7
33 20 21
33 21 48
33 22 37
33 23 25
33 24 12
33 25 54
33 26 49
33 27 52
33 28 48
33 29 28
33 30 22
33 31 53
33 32 26
34 0 45
34 1 28
34 2 56
34 3 18
34 4 58
34 5 48
34 6 33
34 7 27
34 8 8
34 9 8
34 10 11
34 11 6
34 12 42
34 13 58
34 14 47
34 15 37
34 16 15
34 17 15
34 18 23
34 19 13
34 20 7
34 21 36
34 22 53
34 23 39
34 24 1
34 25 17
34 26 38
34 27 13
34 28 40
34 29 26
34 30 48
34 31 43
34 32 8
34 33 16
35 0 39
35 1 29
35 2 30
35 3 33
35 4 50
35 5 20
35 6 54
35 7 22
35 8 41
35 9 13
35 10 8
35 11 60
35 12 7
35 13 3
35 14 24
35 15 20
35 16 17
35 17 36
35 18 47
35 19 26
35 20 25
35 21 50
35 22 35
35 23 51
35 24 30
35 25 51
35 26 41
35 27 60
35 28 26
35 29 22
35 30 31
35 31 40
35 32 7
35 33 28
35 34 6
36 0 16
36 1 28
36 2 54
36 3 38
36 4 49
36 5 18
36 6 18
36 7 19
36 8 24
36 9 42
36 10 6
36 11 16
36 12 35
36 13 12
36 14 52
36 15 14
36 16 23
36 17 49
36 18 28
36 19 54
36 20 26
36 21 2
36 22 23
36 23 10
36 24 32
36 25 7
36 26 44
36 27 56
36 28 46
36 29 9
36 30 12
36 31 1
36 32 54
36 33 4
36 34 46
36 35 12
37 0 40
37 1 24
37 2 52
37 3 43
37 4 9
37 5 22
37 6 32
37 7 42
37 8 28
37 9 41
37 10 32
37 11 6
37 12 18
37 13 21
37 14 34
37 15 24
37 16 14
37 17 51
37 18 7
37 19 1
37 20 45
37 21 3
37 22 26
37 23 12
37 24 10
37 25 27
37 26 45
37 27 52
37 28 23
37 29 27
37 30 47
37 31 42
37 32 51
37 33 9
37 34 58
37 35 19
37 36 59
38 0 29
38 1 17
38 2 29
38 3 24
38 4 57
38 5 10
38 6 37
38 7 26
38 8 11
38 9 15
38 10 3
38 11 38
38 12 58
38 13 52
38 14 52
38 15 33
38 16 38
38 17 12
38 18 9
38 19 52
38 20 60
38 21 11
38 22 3
38 23 35
38 24 60
38 25 52
38 26 60
38 27 55
38 28 49
38 29 10
38 30 60
38 31 12
38 32 23
38 33 22
38 34 43
38 35 44
38 36 9
38 37 19
39 0 59
39 1 27
39 2 49
39 3 47
39 4 41
39 5 8
39 6 17
39 7 53
39 8 26
39 9 58
39 10 59
39 11 50
39 12 14
39 13 14
39 14 32
39 15 28
39 16 12
39 17 8
39 18 8
39 19 1
39 20 5
39 21 1
39 22 18
39 23 25
39 24 54
39 25 43
39 26 46
39 27 49
39 28 13
39 29 32
39 30 53
39 31 23
39 32 48
39 33 16
39 34 25
39 35 20
39 36 31
39 37 12
39 38 57
40 0 47
40 1 55
40 2 58
40 3 13
40 4 4
40 5 46
40 6 49
40 7 51
40 8 25
40 9 32
40 10 27
40 11 41
40 12 9
40 13 28
40 14 44
40 15 22
40 16 56
40 17 54
40 18 52
40 19 6
40 20 35
40 21 57
40 22 36
40 23 32
40 24 32
40 25 31
40 26 57
40 27 19
40 28 60
40 29 29
40 30 15
40 31 49
40 32 24
40 33 28
40 34 28
40 35 59
40 36 31
40 37 27
40 38 20
40 39 17
41 0 32
41 1 16
41 2 32
41 3 16
41 4 60
41 5 35
41 6 1
41 7 14
41 8 11
41 9 60
41 10 19
41 11 60
41 12 25
41 13 26
41 14 17
41 15 44
41 16 37
41 17 47
41 18 40
41 19 19
41 20 41
41 21 39
41 22 30
41 23 46
41 24 47
41 25 30
41 26 10
41 27 46
41 28 35
41 29 41
41 30 33
41 31 6
41 32 60
41 33 4
41 34 55
41 35 45
41 36 5
41 37 15
41 38 4
41 39 50
41 40 41
42 0 41
42 1 1
42 2 40
42 3 48
42 4 4
42 5 28
42 6 44
42 7 5
42 8 50
42 9 35
42 10 11
42 11 58
42 12 38
42 13 55
42 14 11
42 15 57
42 16 13
42 17 27
42 18 19
42 19 18
42 20 4
42 21 10
42 22 54
42 23 31
42 24 24
42 25 36
42 26 39
42 27 31
42 28 60
42 29 19
42 30 20
42 31 2
42 32 24
42 33 5
42 34 17
42 35 51
42 36 41
42 37 25
42 38 49
42 39 51
42 40 58
42 41 44
43 0 60
43 1 2
43 2 60
43 3 4
43 4 18
43 5 58
43 6 54
43 7 22
43 8 6
43 9 18
43 10 41
43 11 44
43 12 59
43 13 11
43 14 59
43 15 54
43 16 29
43 17 1
43 18 31
43 19 13
43 20 27
43 21 43
43 22 55
43 23 41
43 24 26
43 25 12
43 26 49
43 27 42
43 28 42
43 29 15
43 30 55
43 31 56
43 32 36
43 33 34
43 34 41
43 35 2
43 36 42
43 37 45
43 38 24
43 39 29
43 40 39
43 41 43
43 42 38
44 0 35
44 1 50
44 2 32
44 3 9
44 4 23
44 5 13
44 6 46
44 7 6
44 8 14
44 9 55
44 10 1
44 11 43
44 12 58
44 13 29
44 14 55
44 15 12
44 16 8
44 17 57
44 18 54
44 19 14
44 20 45
44 21 57
44 22 41
44 23 23
44 24 25
44 25 36
44 26 59
44 27 28
44 28 46
44 29 1
44 30 5
44 31 23
44 32 43
44 33 29
44 34 17
44 35 18
44 36 49
44 37 42
44 38 18
44 39 57
44 40 46
44 41 50
44 42 1
44 43 28
45 0 60
45 1 60
45 2 28
45 3 7
45 4 38
45 5 23
45 6 41
45 7 45
45 8 20
45 9 35
45 10 51
45 11 59
45 12 5
45 13 23
45 14 3
45 15 14
45 16 33
45 17 10
45 18 12
45 19 8
45 20 42
45 21 53
45 22 23
45 23 15
45 24 58
45 25 60
45 26 25
45 27 42
45 28 58
45 29 10
45 30 23
45 31 22
45 32 37
45 33 9
45 34 30
45 35 49
45 36 8
45 37 29
45 38 31
45 39 54
45 40 22
45 41 60
45 42 43
45 43 55
45 44 13
46 0 55
46 1 55
46 2 34
46 3 25
46 4 21
46 5 5
46 6 19
46 7 35
46 8 22
46 9 46
46 10 42
46 11 37
46 12 52
46 13 8
46 14 44
46 15 42
46 16 3
46 17 22
46 18 34
46 19 19
46 20 10
46 21 52
46 22 58
46 23 32
46 24 48
46 25 24
46 26 14
46 27 55
46 28 2
46 29 6
46 30 37
46 31 8
46 32 57
46 33 3
46 34 31
46 35 3
46 36 32
46 37 53
46 38 55
46 39 49
46 40 3
46 41 26
46 42 37
46 43 25
46 44 7
46 45 32
47 0 37
47 1 28
47 2 15
47 3 38
47 4 35
47 5 15
47 6 37
47 7 29
47 8 60
47 9 32
47 10 21
47 11 14
47 12 43
47 13 26
47 14 20
47 15 49
47 16 54
47 17 13
47 18 36
47 19 21
47 20 42
47 21 14
47 22 49
47 23 46
47 24 55
47 25 7
47 26 13
47 27 11
47 28 36
47 29 48
47 30 2
47 31 42
47 32 31
47 33 16
47 34 32
47 35 15
47 36 43
47 37 3
47 38 59
47 39 14
47 40 33
47 41 38
47 42 60
47 43 46
47 44 13
47 45 34
47 46 40
48 0 42
48 1 24
48 2 49
48 3 41
48 4 59
48 5 40
48 6 43
48 7 51
48 8 48
48 9 41
48 10 26
48 11 42
48 12 41
48 13 21
48 14 52
48 15 48
48 16 37
48 17 38
48 18 34
48 19 9
48 20 31
48 21 25
48 22 47
48 23 54
48 24 52
48 25 51
48 26 57
48 27 58
48 28 29
48 29 51
48 30 6
48 31 28
48 32 23
48 33 57
48 34 12
48 35 12
48 36 22
48 37 24
48 38 6
48 39 11
48 40 53
48 41 26
48 42 48
48 43 22
48 44 14
48 45 4
48 46 20
48 47 51
49 0 5
49 1 31
49 2 7
49 3 9
49 4 55
49 5 45
49 6 49
49 7 41
49 8 56
49 9 9
49 10 9
49 11 4
49 12 32
49 13 29
49 14 55
49 15 4
49 16 17
49 17 58
49 18 23
49 19 38
49 20 2
49 21 37
49 22 45
49 23 44
49 24 42
49 25 34
49 26 16
49 27 27
49 28 46
49 29 47
49 30 26
49 31 20
49 32 36
49 33 35
49 34 56
49 35 51
49 36 60
49 37 45
49 38 46
49 39 43
49 40 39
49 41 5
49 42 24
49 43 18
49 44 35
49 45 59
49 46 48
49 47 17
49 48 29
50 0 54
50 1 5
50 2 26
50 3 33
50 4 16
50 5 43
50 6 9
50 7 31
50 8 4
50 9 49
50 10 59
50 11 42
50 12 53
50 13 45
50 14 32
50 15 18
50 16 25
50 17 10
50 18 12
50 19 19
50 20 50
50 21 22
50 22 48
50 23 52
50 24 10
50 25 13
50 26 6
50 27 48
50 28 46
50 29 25
50 30 39
50 31 37
50 32 37
50 33 37
50 34 25
50 35 24
50 36 53
50 37 41
50 38 14
50 39 11
50 40 1
50 41 15
50 42 13
50 43 53
50 44 24
50 45 15
50 46 11
50 47 50
50 48 16
50 49 3
51 0 12
51 1 17
51 2 15
51 3 24
51 4 34
51 5 55
51 6 5
51 7 25
51 8 52
51 9 42
51 10 9
51 11 12
51 12 60
51 13 51
51 14 51
51 15 50
51 16 9
51 17 56
51 18 59
51 19 46
51 20 23
51 21 60
51 22 51
51 23 6
51 24 59
51 25 30
51 26 31
51 27 5
51 28 57
51 29 17
51 30 24
51 31 44
51 32 20
51 33 10
51 34 26
51 35 35
51 36 59
51 37 32
51 38 10
51 39 58
51 40 16
51 41 3
51 42 46
51 43 16
51 44 42
51 45 40
51 46 30
51 47 57
51 48 23
51 49 16
51 50 32
52 0 30
52 1 55
52 2 39
52 3 54
52 4 31
52 5 9
52 6 54
52 7 54
52 8 32
52 9 50
52 10 5
52 11 31
52 12 15
52 13 57
52 14 52
52 15 26
52 16 30
52 17 38
52 18 47
52 19 49
52 20 57
52 21 43
52 22 50
52 23 55
52 24 17
52 25 12
52 26 54
52 27 10
52 28 31
52 29 24
52 30 6
52 31 17
52 32 44
52 33 33
52 34 2
52 35 43
52 36 14
52 37 3
52 38 38
52 39 9
52 40 54
52 41 33
52 42 54
52 43 11
52 44 24
52 45 40
52 46 56
52 47 20
52 48 30
52 49 12
52 50 56
52 51 50
53 0 27
53 1 45
53 2 6
53 3 4
53 4 25
53 5 20
53 6 33
53 7 27
53 8 20
53 9 30
53 10 47
53 11 14
53 12 32
53 13 47
53 14 17
53 15 29
53 16 25
53 17 47
53 18 15
53 19 10
53 20 26
53 21 55
53 22 34
53 23 11
53 24 41
53 25 48
53 26 25
53 27 38
53 28 34
53 29 51
53 30 25
53 31 55
53 32 27
53 33 26
53 34 53
53 35 12
53 36 15
53 37 48
53 38 44
53 39 27
53 40 17
53 41 21
53 42 4
53 43 59
53 44 5
53 45 17
53 46 35
53 47 28
53 48 34
53 49 43
53 50 16
53 51 37
53 52 15
54 0 20
54 1 57
54 2 58
54 3 8
54 4 43
54 5 48
54 6 39
54 7 18
54 8 36
54 9 39
54 10 58
54 11 43
54 12 47
54 13 9
54 14 15
54 15 38
54 16 32
54 17 34
54 18 5
54 19 20
54 20 25
54 21 7
54 22 11
54 23 33
54 24 20
54 25 5
54 26 22
54 27 28
54 28 51
54 29 2
54 30 17
54 31 12
54 32 8
54 33 55
54 34 4
54 35 20
54 36 19
54 37 52
54 38 58
54 39 44
54 40 49
54 41 3
54 42 37
54 43 47
54 44 8
54 45 37
54 46 27
54 47 37
54 48 5
54 49 7
54 50 34
54 51 22
54 52 21
54 53 22
55 0 57
55 1 6
55 2 11
55 3 53
55 4 47
55 5 6
55 6 14
55 7 39
55 8 29
55 9 46
55 10 59
55 11 10
55 12 27
55 13 13
55 14 23
55 15 41
55 16 48
55 17 19
55 18 33
55 19 49
55 20 30
55 21 45
55 22 37
55 23 46
55 24 49
55 25 24
55 26 6
55 27 14
55 28 46
55 29 7
55 30 26
55 31 25
55 32 12
55 33 42
55 34 32
55 35 51
55 36 34
55 37 28
55 38 24
55 39 54
55 40 31
55 41 2
55 42 19
55 43 12
55 44 1
55 45 2
55 46 1
55 47 25
55 48 25
55 49 46
55 50 57
55 51 58
55 52 48
55 53 17
55 54 28
56 0 39
56 1 30
56 2 9
56 3 39
56 4 31
56 5 39
56 6 4
56 7 55
56 8 60
56 9 8
56 10 2
56 11 50
56 12 33
56 13 15
56 14 35
56 15 42
56 16 8
56 17 59
56 18 32
56 19 43
56 20 11
56 21 53
56 22 15
56 23 1
56 24 17
56 25 32
56 26 1
56 27 40
56 28 6
56 29 31
56 30 28
56 31 33
56 32 53
56 33 12
56 34 60
56 35 42
56 36 11
56 37 38
56 38 23
56 39 31
56 40 49
56 41 36
56 42 30
56 43 49
56 44 10
56 45 27
56 46 21
56 47 47
56 48 10
56 49 19
56 50 12
56 51 22
56 52 54
56 53 53
56 54 26
56 55 19
57 0 28
57 1 44
57 2 5
57 3 18
57 4 29
57 5 59
57 6 45
57 7 38
57 8 28
57 9 37
57 10 53
57 11 28
57 12 2
57 13 4
57 14 48
57 15 44
57 16 30
57 17 32
57 18 59
57 19 47
57 20 26
57 21 17
57 22 27
57 23 58
57 24 12
57 25 3
57 26 13
57 27 23
57 28 36
57 29 57
57 30 11
57 31 22
57 32 59
57 33 54
57 34 1
57 35 45
57 36 45
57 37 12
57 38 48
57 39 55
57 40 46
57 41 48
57 42 29
57 43 52
57 44 16
57 45 33
57 46 28
57 47 18
57 48 27
57 49 20
57 50 54
57 51 5
57 52 27
57 53 47
57 54 18
57 55 38
57 56 44
58 0 21
58 1 59
58 2 17
58 3 56
58 4 30
58 5 1
58 6 32
58 7 40
58 8 32
58 9 46
58 10 41
58 11 59
58 12 17
58 13 27
58 14 21
58 15 23
58 16 35
58 17 8
58 18 53
58 19 29
58 20 27
58 21 1
58 22 37
58 23 50
58 24 15
58 25 58
58 26 32
58 27 42
58 28 15
58 29 52
58 30 39
58 31 27
58 32 18
58 33 58
58 34 24
58 35 53
58 36 53
58 37 17
58 38 34
58 39 57
58 40 17
58 41 5
58 42 53
58 43 32
58 44 52
58 45 36
58 46 5
58 47 5
58 48 57
58 49 42
58 50 58
58 51 30
58 52 10
58 53 16
58 54 4
58 55 25
58 56 52
58 57 13
59 0 45
59 1 54
59 2 42
59 3 41
59 4 50
59 5 9
59 6 27
59 7 40
59 8 12
59 9 38
59 10 44
59 11 6
59 12 54
59 13 54
59 14 13
59 15 30
59 16 39
59 17 55
59 18 30
59 19 6
59 20 52
59 21 40
59 22 32
59 23 29
59 24 31
59 25 20
59 26 41
59 27 17
59 28 33
59 29 30
59 30 25
59 31 52
59 32 36
59 33 51
59 34 19
59 35 41
59 36 13
59 37 36
59 38 4
59 39 28
59 40 48
59 41 29
59 42 26
59 43 12
59 44 11
59 45 3
59 46 22
59 47 8
59 48 18
59 49 47
59 50 60
59 51 41
59 52 27
59 53 52
59 54 54
59 55 12
59 56 12
59 57 4
59 58 51
60 0 14
60 1 46
60 2 49
60 3 15
60 4 12
60 5 39
60 6 30
60 7 45
60 8 8
60 9 35
60 10 32
60 11 41
60 12 34
60 13 18
60 14 46
60 15 27
60 16 52
60 17 34
60 18 19
60 19 1
60 20 40
60 21 28
60 22 45
60 23 60
60 24 51
60 25 60
60 26 21
60 27 6
60 28 47
60 29 25
60 30 45
60 31 54
60 32 15
60 33 43
60 34 28
60 35 14
60 36 30
60 37 28
60 38 40
60 39 36
60 40 29
60 41 50
60 42 28
60 43 22
60 44 54
60 45 14
60 46 45
60 47 49
60 48 51
60 49 12
60 50 56
60 51 10
60 52 12
60 53 32
60 54 23
60 55 11
60 56 49
60 57 29
60 58 29
60 59 54
61 0 22
61 1 39
61 2 20
61 3 45
61 4 26
61 5 1
61 6 46
61 7 7
61 8 58
61 9 8
61 10 4
61 11 48
61 12 24
61 13 23
61 14 39
61 15 15
61 16 1
61 17 54
61 18 32
61 19 29
61 20 17
61 21 35
61 22 18
61 23 58
61 24 15
61 25 5
61 26 2
61 27 49
61 28 22
61 29 5
61 30 23
61 31 20
61 32 9
61 33 56
61 34 34
61 35 30
61 36 39
61 37 24
61 38 12
61 39 60
61 40 34
61 41 34
61 42 12
61 43 3
61 44 32
61 45 33
61 46 59
61 47 52
61 48 60
61 49 54
61 50 58
61 51 46
61 52 32
61 53 60
61 54 57
61 55 1
61 56 31
61 57 17
61 58 47
61 59 7
61 60 46
62 0 38
62 1 41
62 2 4
62 3 20
62 4 12
62 5 52
62 6 46
62 7 32
62 8 4
62 9 20
62 10 40
62 11 1
62 12 59
62 13 13
62 14 9
62 15 31
62 16 59
62 17 53
62 18 36
62 19 23
62 20 25
62 21 34
62 22 44
62 23 10
62 24 55
62 25 25
62 26 56
62 27 54
62 28 14
62 29 21
62 30 38
62 31 42
62 32 59
62 33 34
62 34 46
62 35 59
62 36 46
62 37 18
62 38 9
62 39 18
62 40 6
62 41 39
62 42 3
62 43 38
62 44 18
62 45 52
62 46 31
62 47 49
62 48 7
62 49 12
62 50 60
62 51 1
62 52 40
62 53 21
62 54 34
62 55 50
62 56 23
62 57 12
62 58 34
62 59 24
62 60 29
62 61 58
63 0 40
63 1 11
63 2 26
63 3 35
63 4 32
63 5 60
63 6 38
63 7 23
63 8 34
63 9 44
63 10 53
63 11 35
63 12 38
63 13 17
63 14 31
63 15 21
63 16 28
63 17 41
63 18 27
63 19 11
63 20 19
63 21 2
63 22 20
63 23 53
63 24 2
63 25 10
63 26 27
63 27 34
63 28 35
63 29 56
63 30 20
63 31 20
63 32 42
63 33 26
63 34 7
63 35 36
63 36 19
63 37 57
63 38 60
63 39 6
63 40 44
63 41 4
63 42 27
63 43 16
63 44 49
63 45 13
63 46 6
63 47 19
63 48 43
63 49 1
63 50 7
63 51 18
63 52 50
63 53 42
63 54 57
63 55 2
63 56 55
63 57 43
63 58 34
63 59 33
63 60 46
63 61 20
63 62 19
64 0 29
64 1 48
64 2 46
64 3 25
64 4 40
64 5 19
64 6 2
64 7 33
64 8 46
64 9 31
64 10 51
64 11 1
64 12 35
64 13 21
64 14 4
64 15 27
64 16 41
64 17 46
64 18 19
64 19 8
64 20 11
64 21 15
64 22 22
64 23 17
64 24 59
64 25 18
64 26 48
64 27 59
64 28 48
64 29 26
64 30 15
64 31 33
64 32 41
64 33 58
64 34 33
64 35 25
64 36 59
64 37 23
64 38 58
64 39 1
64 40 52
64 41 24
64 42 56
64 43 15
64 44 58
64 45 45
64 46 41
64 47 17
64 48 34
64 49 17
64 50 33
64 51 54
64 52 33
64 53 9
64 54 20
64 55 46
64 56 5
64 57 6
64 58 27
64 59 10
64 60 33
64 61 54
64 62 60
64 63 11
65 0 24
65 1 37
65 2 5
65 3 11
65 4 45
65 5 25
65 6 53
65 7 25
65 8 6
65 9 49
65 10 17
65 11 46
65 12 23
65 13 42
65 14 4
65 15 2
65 16 13
65 17 30
65 18 4
65 19 37
65 20 5
65 21 23
65 22 48
65 23 55
65 24 46
65 25 24
65 26 21
65 27 12
65 28 28
65 29 48
65 30 28
65 31 45
65 32 9
65 33 57
65 34 30
65 35 21
65 36 7
65 37 48
65 38 15
65 39 36
65 40 8
65 41 36
65 42 58
65 43 28
65 44 11
65 45 26
65 46 18
65 47 14
65 48 53
65 49 40
65 50 31
65 51 38
65 52 20
65 53 26
65 54 44
65 55 44
65 56 29
65 57 53
65 58 39
65 59 13
65 60 34
65 61 34
65 62 8
65 63 40
65 64 23
66 0 22
66 1 43
66 2 22
66 3 3
66 4 45
66 5 46
66 6 32
66 7 38
66 8 23
66 9 1
66 10 1
66 11 1
66 12 10
66 13 23
66 14 58
66 15 46
66 16 26
66 17 45
66 18 52
66 19 42
66 20 54
66 21 47
66 22 5
66 23 33
66 24 13
66 25 59
66 26 44
66 27 8
66 28 48
66 29 49
66 30 32
66 31 30
66 32 51
66 33 14
66 34 57
66 35 17
66 36 50
66 37 17
66 38 49
66 39 6
66 40 59
66 41 19
66 42 12
66 43 48
66 44 28
66 45 15
66 46 15
66 47 53
66 48 16
66 49 44
66 50 14
66 51 11
66 52 50
66 53 13
66 54 6
66 55 8
66 56 31
66 57 16
66 58 9
66 59 38
66 60 41
66 61 41
66 62 38
66 63 38
66 64 25
66 65 11
67 0 35
67 1 9
67 2 12
67 3 40
67 4 3
67 5 48
67 6 52
67 7 35
67 8 21
67 9 32
67 10 45
67 11 32
67 12 25
67 13 58
67 14 47
67 15 26
67 16 3
67 17 29
67 18 11
67 19 46
67 20 39
67 21 6
67 22 39
67 23 41
67 24 5
67 25 36
67 26 23
67 27 9
67 28 14
67 29 37
67 30 28
67 31 7
67 32 47
67 33 35
67 34 11
67 35 47
67 36 10
67 37 40
67 38 29
67 39 12
67 40 45
67 41 15
67 42 33
67 43 36
67 44 36
67 45 25
67 46 18
67 47 44
67 48 25
67 49 43
67 50 13
67 51 36
67 52 41
67 53 55
67 54 46
67 55 34
67 56 49
67 57 33
67 58 29
67 59 43
67 60 7
67 61 53
67 62 15
67 63 59
67 64 34
67 65 58
67 66 34
68 0 20
68 1 58
68 2 13
68 3 42
68 4 9
68 5 1
68 6 55
68 7 3
68 8 23
68 9 2
68 10 12
68 11 5
68 12 21
68 13 39
68 14 29
68 15 50
68 16 13
68 17 38
68 18 35
68 19 35
68 20 17
68 21 42
68 22 55
68 23 20
68 24 59
68 25 54
68 26 23
68 27 14
68 28 59
68 29 54
68 30 2
68 31 3
68 32 48
68 33 26
68 34 25
68 35 16
68 36 55
68 37 33
68 38 23
68 39 25
68 40 19
68 41 34
68 42 43
68 43 54
68 44 44
68 45 41
68 46 40
68 47 7
68 48 18
68 49 53
68 50 34
68 51 55
68 52 10
68 53 31
68 54 52
68 55 30
68 56 28
68 57 26
68 58 27
68 59 30
68 60 32
68 61 2
68 62 48
68 63 37
68 64 18
68 65 9
68 66 39
68 67 5
69 0 25
69 1 55
69 2 12
69 3 14
69 4 13
69 5 57
69 6 43
69 7 18
69 8 58
69 9 27
69 10 23
69 11 37
69 12 39
69 13 7
69 14 37
69 15 56
69 16 25
69 17 55
69 18 21
69 19 12
69 20 31
69 21 17
69 22 45
69 23 13
69 24 8
69 25 56
69 26 28
69 27 59
69 28 35
69 29 45
69 30 34
69 31 46
69 32 52
69 33 13
69 34 36
69 35 53
69 36 15
69 37 22
69 38 15
69 39 5
69 40 41
69 41 19
69 42 53
69 43 48
69 44 9
69 45 44
69 46 47
69 47 44
69 48 1
69 49 53
69 50 52
69 51 38
69 52 17
69 53 5
69 54 10
69 55 56
69 56 15
69 57 44
69 58 18
69 59 1
69 60 52
69 61 17
69 62 4
69 63 56
69 64 42
69 65 35
69 66 22
69 67 1
69 68 44
